* ENCODING=ISO-8859-1
NAME          OpenStack VM placement
ROWS
 N  obj         
 E  c1          
 E  c2          
 G  c3          
 G  c4          
 L  c5          
 G  c6          
 G  c7          
 L  c8          
 G  c9          
 G  c10         
 L  c11         
 G  c12         
 G  c13         
 L  c14         
 G  c15         
 G  c16         
 L  c17         
 G  c18         
 G  c19         
 L  c20         
 G  c21         
 G  c22         
 L  c23         
 G  c24         
 G  c25         
 L  c26         
 G  c27         
 G  c28         
 L  c29         
 G  c30         
 G  c31         
 L  c32         
 G  c33         
 G  c34         
 L  c35         
 G  c36         
 G  c37         
 L  c38         
 G  c39         
 G  c40         
 L  c41         
 G  c42         
 G  c43         
 L  c44         
 G  c45         
 G  c46         
 L  c47         
 G  c48         
 G  c49         
 L  c50         
 G  c51         
 G  c52         
 L  c53         
 G  c54         
 G  c55         
 L  c56         
 G  c57         
 G  c58         
 L  c59         
 G  c60         
 G  c61         
 L  c62         
 G  c63         
 G  c64         
 L  c65         
 G  c66         
 G  c67         
 L  c68         
 G  c69         
 G  c70         
 L  c71         
 G  c72         
 G  c73         
 L  c74         
 G  c75         
 G  c76         
 L  c77         
 L  c78         
 L  c79         
 L  c80         
 L  c81         
 L  c82         
 L  c83         
 L  c84         
 L  c85         
 L  c86         
 L  c87         
 L  c88         
 L  c89         
 L  c90         
 L  c91         
 L  c92         
 E  c93         
 E  c94         
 E  c95         
 E  c96         
 E  c97         
 L  c98         
 L  c99         
 L  c100        
 L  c101        
 L  c102        
COLUMNS
    MARK0000  'MARKER'                 'INTORG'
    x_0_0         c1                                  1
    x_0_0         c3                                  1
    x_0_0         c5                                  1
    x_0_0         c6                                  1
    x_0_0         c8                                  1
    x_0_0         c9                                  1
    x_0_0         c11                                 1
    x_0_0         c12                                 1
    x_0_0         c14                                 1
    x_0_0         c15                                 1
    x_0_0         c17                                 1
    x_0_0         c78                                 2
    x_0_0         c79                               512
    x_0_0         c80                               250
    x_0_1         c1                                  1
    x_0_1         c18                                 1
    x_0_1         c20                                 1
    x_0_1         c21                                 1
    x_0_1         c23                                 1
    x_0_1         c24                                 1
    x_0_1         c26                                 1
    x_0_1         c27                                 1
    x_0_1         c29                                 1
    x_0_1         c30                                 1
    x_0_1         c32                                 1
    x_0_1         c81                                 2
    x_0_1         c82                               512
    x_0_1         c83                               250
    x_0_2         c1                                  1
    x_0_2         c33                                 1
    x_0_2         c35                                 1
    x_0_2         c36                                 1
    x_0_2         c38                                 1
    x_0_2         c39                                 1
    x_0_2         c41                                 1
    x_0_2         c42                                 1
    x_0_2         c44                                 1
    x_0_2         c45                                 1
    x_0_2         c47                                 1
    x_0_2         c84                                 2
    x_0_2         c85                               512
    x_0_2         c86                               250
    x_0_3         c1                                  1
    x_0_3         c48                                 1
    x_0_3         c50                                 1
    x_0_3         c51                                 1
    x_0_3         c53                                 1
    x_0_3         c54                                 1
    x_0_3         c56                                 1
    x_0_3         c57                                 1
    x_0_3         c59                                 1
    x_0_3         c60                                 1
    x_0_3         c62                                 1
    x_0_3         c87                                 2
    x_0_3         c88                               512
    x_0_3         c89                               250
    x_0_4         c1                                  1
    x_0_4         c63                                 1
    x_0_4         c65                                 1
    x_0_4         c66                                 1
    x_0_4         c68                                 1
    x_0_4         c69                                 1
    x_0_4         c71                                 1
    x_0_4         c72                                 1
    x_0_4         c74                                 1
    x_0_4         c75                                 1
    x_0_4         c77                                 1
    x_0_4         c90                                 2
    x_0_4         c91                               512
    x_0_4         c92                               250
    x_1_0         c2                                  1
    x_1_0         c4                                  1
    x_1_0         c5                                  1
    x_1_0         c19                                 1
    x_1_0         c20                                 1
    x_1_0         c34                                 1
    x_1_0         c35                                 1
    x_1_0         c49                                 1
    x_1_0         c50                                 1
    x_1_0         c64                                 1
    x_1_0         c65                                 1
    x_1_0         c78                                 4
    x_1_0         c79                             16384
    x_1_0         c80                                40
    x_1_1         c2                                  1
    x_1_1         c7                                  1
    x_1_1         c8                                  1
    x_1_1         c22                                 1
    x_1_1         c23                                 1
    x_1_1         c37                                 1
    x_1_1         c38                                 1
    x_1_1         c52                                 1
    x_1_1         c53                                 1
    x_1_1         c67                                 1
    x_1_1         c68                                 1
    x_1_1         c81                                 4
    x_1_1         c82                             16384
    x_1_1         c83                                40
    x_1_2         c2                                  1
    x_1_2         c10                                 1
    x_1_2         c11                                 1
    x_1_2         c25                                 1
    x_1_2         c26                                 1
    x_1_2         c40                                 1
    x_1_2         c41                                 1
    x_1_2         c55                                 1
    x_1_2         c56                                 1
    x_1_2         c70                                 1
    x_1_2         c71                                 1
    x_1_2         c84                                 4
    x_1_2         c85                             16384
    x_1_2         c86                                40
    x_1_3         c2                                  1
    x_1_3         c13                                 1
    x_1_3         c14                                 1
    x_1_3         c28                                 1
    x_1_3         c29                                 1
    x_1_3         c43                                 1
    x_1_3         c44                                 1
    x_1_3         c58                                 1
    x_1_3         c59                                 1
    x_1_3         c73                                 1
    x_1_3         c74                                 1
    x_1_3         c87                                 4
    x_1_3         c88                             16384
    x_1_3         c89                                40
    x_1_4         c2                                  1
    x_1_4         c16                                 1
    x_1_4         c17                                 1
    x_1_4         c31                                 1
    x_1_4         c32                                 1
    x_1_4         c46                                 1
    x_1_4         c47                                 1
    x_1_4         c61                                 1
    x_1_4         c62                                 1
    x_1_4         c76                                 1
    x_1_4         c77                                 1
    x_1_4         c90                                 4
    x_1_4         c91                             16384
    x_1_4         c92                                40
    y_0_1_0_0     c3                                 -1
    y_0_1_0_0     c4                                 -1
    y_0_1_0_0     c5                                 -1
    y_0_1_0_1     c6                                 -1
    y_0_1_0_1     c7                                 -1
    y_0_1_0_1     c8                                 -1
    y_0_1_0_2     c9                                 -1
    y_0_1_0_2     c10                                -1
    y_0_1_0_2     c11                                -1
    y_0_1_0_3     c12                                -1
    y_0_1_0_3     c13                                -1
    y_0_1_0_3     c14                                -1
    y_0_1_0_4     c15                                -1
    y_0_1_0_4     c16                                -1
    y_0_1_0_4     c17                                -1
    y_0_1_1_0     c18                                -1
    y_0_1_1_0     c19                                -1
    y_0_1_1_0     c20                                -1
    y_0_1_1_1     c21                                -1
    y_0_1_1_1     c22                                -1
    y_0_1_1_1     c23                                -1
    y_0_1_1_2     c24                                -1
    y_0_1_1_2     c25                                -1
    y_0_1_1_2     c26                                -1
    y_0_1_1_3     c27                                -1
    y_0_1_1_3     c28                                -1
    y_0_1_1_3     c29                                -1
    y_0_1_1_4     c30                                -1
    y_0_1_1_4     c31                                -1
    y_0_1_1_4     c32                                -1
    y_0_1_2_0     c33                                -1
    y_0_1_2_0     c34                                -1
    y_0_1_2_0     c35                                -1
    y_0_1_2_1     c36                                -1
    y_0_1_2_1     c37                                -1
    y_0_1_2_1     c38                                -1
    y_0_1_2_2     c39                                -1
    y_0_1_2_2     c40                                -1
    y_0_1_2_2     c41                                -1
    y_0_1_2_3     c42                                -1
    y_0_1_2_3     c43                                -1
    y_0_1_2_3     c44                                -1
    y_0_1_2_4     c45                                -1
    y_0_1_2_4     c46                                -1
    y_0_1_2_4     c47                                -1
    y_0_1_3_0     c48                                -1
    y_0_1_3_0     c49                                -1
    y_0_1_3_0     c50                                -1
    y_0_1_3_1     c51                                -1
    y_0_1_3_1     c52                                -1
    y_0_1_3_1     c53                                -1
    y_0_1_3_2     c54                                -1
    y_0_1_3_2     c55                                -1
    y_0_1_3_2     c56                                -1
    y_0_1_3_3     c57                                -1
    y_0_1_3_3     c58                                -1
    y_0_1_3_3     c59                                -1
    y_0_1_3_4     c60                                -1
    y_0_1_3_4     c61                                -1
    y_0_1_3_4     c62                                -1
    y_0_1_4_0     c63                                -1
    y_0_1_4_0     c64                                -1
    y_0_1_4_0     c65                                -1
    y_0_1_4_1     c66                                -1
    y_0_1_4_1     c67                                -1
    y_0_1_4_1     c68                                -1
    y_0_1_4_2     c69                                -1
    y_0_1_4_2     c70                                -1
    y_0_1_4_2     c71                                -1
    y_0_1_4_3     c72                                -1
    y_0_1_4_3     c73                                -1
    y_0_1_4_3     c74                                -1
    y_0_1_4_4     c75                                -1
    y_0_1_4_4     c76                                -1
    y_0_1_4_4     c77                                -1
    MARK0001  'MARKER'                 'INTEND'
    l_0           c93                                -1
    l_0           c98                                 1
    l_1           c94                                -1
    l_1           c99                                 1
    l_2           c95                                -1
    l_2           c100                                1
    l_3           c96                                -1
    l_3           c101                                1
    l_4           c97                                -1
    l_4           c102                                1
    z_0           obj                                 0
    z_1           obj                                 0
    z_2           obj                                 0
    z_3           obj                                 0
    z_4           obj                                 0
    heavest_link  obj                                 1
    heavest_link  c98                                -1
    heavest_link  c99                                -1
    heavest_link  c100                               -1
    heavest_link  c101                               -1
    heavest_link  c102                               -1
RHS
    rhs           c1                                  1
    rhs           c2                                  1
    rhs           c5                                  1
    rhs           c8                                  1
    rhs           c11                                 1
    rhs           c14                                 1
    rhs           c17                                 1
    rhs           c20                                 1
    rhs           c23                                 1
    rhs           c26                                 1
    rhs           c29                                 1
    rhs           c32                                 1
    rhs           c35                                 1
    rhs           c38                                 1
    rhs           c41                                 1
    rhs           c44                                 1
    rhs           c47                                 1
    rhs           c50                                 1
    rhs           c53                                 1
    rhs           c56                                 1
    rhs           c59                                 1
    rhs           c62                                 1
    rhs           c65                                 1
    rhs           c68                                 1
    rhs           c71                                 1
    rhs           c74                                 1
    rhs           c77                                 1
    rhs           c78                                12
    rhs           c79                            128000
    rhs           c80                              2000
    rhs           c81                                10
    rhs           c82                            119808
    rhs           c83                              1800
    rhs           c84                                10
    rhs           c85                            126976
    rhs           c86                              1920
    rhs           c87                                 8
    rhs           c88                            111616
    rhs           c89                              1960
    rhs           c90                                12
    rhs           c91                            128000
    rhs           c92                              2000
BOUNDS
 UP bnd           x_0_0                               1
 UP bnd           x_0_1                               1
 UP bnd           x_0_2                               1
 UP bnd           x_0_3                               1
 UP bnd           x_0_4                               1
 UP bnd           x_1_0                               1
 UP bnd           x_1_1                               1
 UP bnd           x_1_2                               1
 UP bnd           x_1_3                               1
 UP bnd           x_1_4                               1
 UP bnd           y_0_1_0_0                           1
 UP bnd           y_0_1_0_1                           1
 UP bnd           y_0_1_0_2                           1
 UP bnd           y_0_1_0_3                           1
 UP bnd           y_0_1_0_4                           1
 UP bnd           y_0_1_1_0                           1
 UP bnd           y_0_1_1_1                           1
 UP bnd           y_0_1_1_2                           1
 UP bnd           y_0_1_1_3                           1
 UP bnd           y_0_1_1_4                           1
 UP bnd           y_0_1_2_0                           1
 UP bnd           y_0_1_2_1                           1
 UP bnd           y_0_1_2_2                           1
 UP bnd           y_0_1_2_3                           1
 UP bnd           y_0_1_2_4                           1
 UP bnd           y_0_1_3_0                           1
 UP bnd           y_0_1_3_1                           1
 UP bnd           y_0_1_3_2                           1
 UP bnd           y_0_1_3_3                           1
 UP bnd           y_0_1_3_4                           1
 UP bnd           y_0_1_4_0                           1
 UP bnd           y_0_1_4_1                           1
 UP bnd           y_0_1_4_2                           1
 UP bnd           y_0_1_4_3                           1
 UP bnd           y_0_1_4_4                           1
ENDATA
